0000000000000000
0000000000000000
0001000000000000
0001100001100000
0000111000111000
0000010000011000
0000111000110000
0000101110100000
0001100111000000
0001000010000000
0001000011000000
0001000001100000
0001100000100000
0000000000000000
0000000000000000
0000000000000000
